NAME : optical-integer.standard.tour
TYPE : TOUR
DIMENSION : 174
TOUR_SECTION
1
49
54
86
102
115
117
120
129
137
161
165
166
2
39
45
52
99
103
113
114
116
127
139
167
168
3
98
151
152
153
154
4
97
150
5
37
100
106
110
118
119
121
122
123
124
125
126
128
136
146
6
130
157
7
73
76
8
57
82
84
85
89
90
91
9
33
35
58
59
61
67
132
134
138
169
173
174
10
68
72
74
92
11
16
44
50
101
104
105
107
108
109
111
112
145
12
18
48
53
131
144
148
156
13
15
41
51
88
94
149
14
42
62
79
80
83
17
30
47
55
96
142
143
147
19
24
27
28
31
34
63
66
69
77
78
81
20
29
32
36
56
64
70
71
75
87
135
140
155
158
21
26
38
93
95
22
23
25
40
43
46
60
65
133
141
159
160
162
163
164
170
171
172
-1
EOF
